n_nodes = 828;
M = 6701;
n_domains = 18;
domain_link_weights = [|0,6701,6701,358,6701,6701,6701,6701,6701,6701,6701,6701,6701,6701,6701,6701,6701,6701|6701,0,6701,6701,6701,479,344,264,6701,6701,6701,6701,6701,6701,6701,6701,6701,6701|6701,6701,0,6701,6701,6701,6701,6701,6701,972,6701,6701,6701,6701,1788,6701,6701,6701|6701,6701,6701,0,6701,6701,6701,6701,6701,6701,6701,6701,6701,6701,6701,6701,6701,6701|6701,6701,6701,6701,0,364,358,173,6701,6701,6701,6701,6701,6701,6701,6701,6701,6223|6701,6701,6701,6701,6701,0,6701,6701,6701,6701,6701,6701,6701,6701,6701,6701,6701,6701|6701,6701,6701,6701,6701,6701,0,6701,5585,6701,6701,6701,6701,6701,6701,6701,6701,6701|6701,6701,6701,6701,6701,6701,6701,0,6701,6701,6701,6701,6701,6701,6701,6701,6701,6701|6701,6701,6701,6701,6701,6701,6701,6701,0,6701,6701,6701,6701,6701,6701,1148,556,350|6701,6701,6701,6701,6701,6701,6701,6701,6701,0,6701,6701,6701,2562,6701,943,6701,852|6701,6701,6701,6701,6701,6701,6701,6701,6701,6701,0,1141,6701,6701,6701,2795,6701,6701|6701,6701,6701,6701,6701,6701,6701,6701,6701,6701,6701,0,492,6701,6701,2963,6701,3855|6701,6701,6701,6701,6701,6701,6701,6701,6701,6701,6701,6701,0,575,1995,2807,6701,6701|6701,6701,6701,6701,6701,6701,6701,6701,6701,6701,6701,6701,6701,0,1425,6701,6701,6701|6701,6701,6701,6701,6701,6701,6701,6701,6701,6701,6701,6701,6701,6701,0,1291,6701,1872|6701,6701,6701,6701,6701,6701,6701,6701,6701,6701,6701,6701,6701,6701,6701,0,704,916|6701,6701,6701,6701,6701,6701,6701,6701,6701,6701,6701,6701,6701,6701,6701,6701,0,6701|6701,6701,6701,6701,6701,6701,6701,6701,6701,6701,6701,6701,6701,6701,6701,6701,6701,0|];
num_node_links = 1651;
node_links = [|1,3|1,4|2,6|2,7|2,8|3,10|3,15|5,6|5,7|5,8|5,18|7,9|9,16|9,17|9,18|10,14|10,16|10,18|11,12|11,16|12,13|12,16|12,18|13,14|13,15|13,16|14,15|15,16|15,18|16,17|16,18|1,19|19,1|1,63|63,1|1,68|68,1|1,86|86,1|1,98|98,1|1,154|154,1|1,168|168,1|1,173|173,1|1,174|174,1|1,195|195,1|1,209|209,1|1,236|236,1|1,247|247,1|1,278|278,1|1,299|299,1|1,305|305,1|1,308|308,1|1,320|320,1|1,322|322,1|1,349|349,1|1,365|365,1|1,380|380,1|1,390|390,1|1,404|404,1|1,483|483,1|1,508|508,1|1,514|514,1|1,515|515,1|1,517|517,1|1,518|518,1|1,534|534,1|1,535|535,1|1,540|540,1|1,562|562,1|1,571|571,1|1,576|576,1|1,606|606,1|1,623|623,1|1,645|645,1|1,663|663,1|1,699|699,1|1,743|743,1|1,764|764,1|1,769|769,1|1,781|781,1|2,20|20,2|2,69|69,2|2,96|96,2|2,108|108,2|2,133|133,2|2,145|145,2|2,149|149,2|2,162|162,2|2,165|165,2|2,175|175,2|2,184|184,2|2,191|191,2|2,212|212,2|2,220|220,2|2,223|223,2|2,250|250,2|2,287|287,2|2,294|294,2|2,300|300,2|2,307|307,2|2,326|326,2|2,333|333,2|2,352|352,2|2,385|385,2|2,407|407,2|2,413|413,2|2,457|457,2|2,467|467,2|2,541|541,2|2,566|566,2|2,573|573,2|2,575|575,2|2,591|591,2|2,592|592,2|2,619|619,2|2,620|620,2|2,650|650,2|2,656|656,2|2,674|674,2|2,681|681,2|2,688|688,2|2,694|694,2|2,703|703,2|2,780|780,2|2,813|813,2|3,21|21,3|3,37|37,3|3,39|39,3|3,45|45,3|3,66|66,3|3,97|97,3|3,111|111,3|3,126|126,3|3,136|136,3|3,156|156,3|3,190|190,3|3,276|276,3|3,277|277,3|3,289|289,3|3,313|313,3|3,339|339,3|3,345|345,3|3,396|396,3|3,400|400,3|3,435|435,3|3,439|439,3|3,448|448,3|3,452|452,3|3,482|482,3|3,495|495,3|3,512|512,3|3,519|519,3|3,522|522,3|3,596|596,3|3,602|602,3|3,618|618,3|3,637|637,3|3,641|641,3|3,658|658,3|3,675|675,3|3,682|682,3|3,698|698,3|3,713|713,3|3,718|718,3|3,735|735,3|3,750|750,3|3,753|753,3|3,754|754,3|3,768|768,3|3,814|814,3|4,22|22,4|4,60|60,4|4,78|78,4|4,83|83,4|4,85|85,4|4,120|120,4|4,151|151,4|4,177|177,4|4,178|178,4|4,188|188,4|4,199|199,4|4,204|204,4|4,221|221,4|4,230|230,4|4,231|231,4|4,235|235,4|4,315|315,4|4,329|329,4|4,347|347,4|4,361|361,4|4,364|364,4|4,369|369,4|4,371|371,4|4,382|382,4|4,432|432,4|4,441|441,4|4,456|456,4|4,476|476,4|4,506|506,4|4,525|525,4|4,527|527,4|4,531|531,4|4,597|597,4|4,611|611,4|4,633|633,4|4,640|640,4|4,683|683,4|4,684|684,4|4,729|729,4|4,734|734,4|4,758|758,4|4,801|801,4|4,811|811,4|4,822|822,4|4,828|828,4|5,23|23,5|5,56|56,5|5,112|112,5|5,122|122,5|5,123|123,5|5,129|129,5|5,137|137,5|5,170|170,5|5,210|210,5|5,226|226,5|5,272|272,5|5,283|283,5|5,284|284,5|5,291|291,5|5,293|293,5|5,302|302,5|5,357|357,5|5,359|359,5|5,379|379,5|5,388|388,5|5,442|442,5|5,445|445,5|5,451|451,5|5,490|490,5|5,496|496,5|5,501|501,5|5,551|551,5|5,557|557,5|5,558|558,5|5,590|590,5|5,613|613,5|5,629|629,5|5,639|639,5|5,642|642,5|5,649|649,5|5,693|693,5|5,707|707,5|5,710|710,5|5,726|726,5|5,736|736,5|5,744|744,5|5,770|770,5|5,790|790,5|5,795|795,5|5,825|825,5|6,24|24,6|6,41|41,6|6,47|47,6|6,50|50,6|6,81|81,6|6,89|89,6|6,103|103,6|6,105|105,6|6,138|138,6|6,143|143,6|6,251|251,6|6,265|265,6|6,267|267,6|6,268|268,6|6,297|297,6|6,298|298,6|6,319|319,6|6,378|378,6|6,383|383,6|6,384|384,6|6,386|386,6|6,403|403,6|6,408|408,6|6,422|422,6|6,460|460,6|6,471|471,6|6,498|498,6|6,530|530,6|6,550|550,6|6,555|555,6|6,565|565,6|6,600|600,6|6,624|624,6|6,669|669,6|6,671|671,6|6,691|691,6|6,697|697,6|6,723|723,6|6,730|730,6|6,775|775,6|6,791|791,6|6,793|793,6|6,805|805,6|6,806|806,6|6,815|815,6|7,25|25,7|7,44|44,7|7,46|46,7|7,48|48,7|7,65|65,7|7,75|75,7|7,84|84,7|7,101|101,7|7,141|141,7|7,166|166,7|7,171|171,7|7,176|176,7|7,179|179,7|7,181|181,7|7,192|192,7|7,193|193,7|7,219|219,7|7,224|224,7|7,242|242,7|7,255|255,7|7,286|286,7|7,292|292,7|7,295|295,7|7,344|344,7|7,368|368,7|7,373|373,7|7,376|376,7|7,418|418,7|7,423|423,7|7,431|431,7|7,465|465,7|7,481|481,7|7,486|486,7|7,532|532,7|7,543|543,7|7,556|556,7|7,589|589,7|7,627|627,7|7,660|660,7|7,712|712,7|7,720|720,7|7,742|742,7|7,748|748,7|7,767|767,7|7,797|797,7|8,26|26,8|8,52|52,8|8,54|54,8|8,59|59,8|8,70|70,8|8,76|76,8|8,87|87,8|8,94|94,8|8,102|102,8|8,119|119,8|8,121|121,8|8,172|172,8|8,200|200,8|8,233|233,8|8,256|256,8|8,266|266,8|8,296|296,8|8,327|327,8|8,362|362,8|8,437|437,8|8,438|438,8|8,463|463,8|8,480|480,8|8,497|497,8|8,546|546,8|8,553|553,8|8,594|594,8|8,622|622,8|8,659|659,8|8,680|680,8|8,711|711,8|8,716|716,8|8,724|724,8|8,737|737,8|8,738|738,8|8,741|741,8|8,751|751,8|8,755|755,8|8,757|757,8|8,759|759,8|8,785|785,8|8,786|786,8|8,810|810,8|8,816|816,8|8,823|823,8|9,27|27,9|9,51|51,9|9,90|90,9|9,93|93,9|9,104|104,9|9,131|131,9|9,152|152,9|9,161|161,9|9,189|189,9|9,252|252,9|9,254|254,9|9,261|261,9|9,275|275,9|9,316|316,9|9,348|348,9|9,391|391,9|9,393|393,9|9,402|402,9|9,405|405,9|9,406|406,9|9,428|428,9|9,458|458,9|9,470|470,9|9,485|485,9|9,492|492,9|9,504|504,9|9,513|513,9|9,523|523,9|9,554|554,9|9,568|568,9|9,574|574,9|9,579|579,9|9,595|595,9|9,601|601,9|9,603|603,9|9,609|609,9|9,655|655,9|9,664|664,9|9,700|700,9|9,704|704,9|9,705|705,9|9,717|717,9|9,732|732,9|9,762|762,9|9,776|776,9|10,28|28,10|10,43|43,10|10,64|64,10|10,91|91,10|10,92|92,10|10,124|124,10|10,135|135,10|10,167|167,10|10,169|169,10|10,218|218,10|10,229|229,10|10,264|264,10|10,306|306,10|10,321|321,10|10,336|336,10|10,338|338,10|10,342|342,10|10,346|346,10|10,355|355,10|10,370|370,10|10,411|411,10|10,455|455,10|10,462|462,10|10,473|473,10|10,479|479,10|10,484|484,10|10,500|500,10|10,503|503,10|10,547|547,10|10,560|560,10|10,588|588,10|10,593|593,10|10,615|615,10|10,636|636,10|10,638|638,10|10,647|647,10|10,689|689,10|10,706|706,10|10,727|727,10|10,749|749,10|10,789|789,10|10,802|802,10|10,804|804,10|10,819|819,10|10,820|820,10|11,29|29,11|11,40|40,11|11,116|116,11|11,117|117,11|11,125|125,11|11,196|196,11|11,206|206,11|11,244|244,11|11,249|249,11|11,263|263,11|11,270|270,11|11,311|311,11|11,323|323,11|11,325|325,11|11,350|350,11|11,366|366,11|11,397|397,11|11,401|401,11|11,410|410,11|11,416|416,11|11,417|417,11|11,421|421,11|11,425|425,11|11,427|427,11|11,443|443,11|11,450|450,11|11,469|469,11|11,477|477,11|11,488|488,11|11,533|533,11|11,542|542,11|11,561|561,11|11,569|569,11|11,578|578,11|11,580|580,11|11,607|607,11|11,648|648,11|11,661|661,11|11,685|685,11|11,695|695,11|11,747|747,11|11,774|774,11|11,794|794,11|11,807|807,11|11,817|817,11|12,30|30,12|12,62|62,12|12,144|144,12|12,194|194,12|12,197|197,12|12,201|201,12|12,207|207,12|12,211|211,12|12,241|241,12|12,258|258,12|12,324|324,12|12,328|328,12|12,330|330,12|12,337|337,12|12,356|356,12|12,387|387,12|12,433|433,12|12,447|447,12|12,478|478,12|12,491|491,12|12,494|494,12|12,502|502,12|12,509|509,12|12,511|511,12|12,526|526,12|12,536|536,12|12,537|537,12|12,549|549,12|12,564|564,12|12,567|567,12|12,581|581,12|12,631|631,12|12,632|632,12|12,654|654,12|12,673|673,12|12,679|679,12|12,709|709,12|12,719|719,12|12,740|740,12|12,761|761,12|12,772|772,12|12,788|788,12|12,792|792,12|12,798|798,12|12,826|826,12|13,31|31,13|13,49|49,13|13,57|57,13|13,58|58,13|13,61|61,13|13,95|95,13|13,128|128,13|13,148|148,13|13,185|185,13|13,186|186,13|13,202|202,13|13,222|222,13|13,227|227,13|13,237|237,13|13,248|248,13|13,260|260,13|13,332|332,13|13,374|374,13|13,375|375,13|13,381|381,13|13,389|389,13|13,395|395,13|13,436|436,13|13,440|440,13|13,446|446,13|13,487|487,13|13,489|489,13|13,544|544,13|13,563|563,13|13,582|582,13|13,584|584,13|13,598|598,13|13,599|599,13|13,610|610,13|13,635|635,13|13,670|670,13|13,702|702,13|13,721|721,13|13,722|722,13|13,731|731,13|13,773|773,13|13,779|779,13|13,784|784,13|13,799|799,13|13,800|800,13|14,32|32,14|14,55|55,14|14,67|67,14|14,72|72,14|14,73|73,14|14,74|74,14|14,80|80,14|14,107|107,14|14,114|114,14|14,127|127,14|14,130|130,14|14,139|139,14|14,140|140,14|14,182|182,14|14,208|208,14|14,217|217,14|14,273|273,14|14,279|279,14|14,282|282,14|14,301|301,14|14,398|398,14|14,399|399,14|14,409|409,14|14,424|424,14|14,426|426,14|14,434|434,14|14,461|461,14|14,505|505,14|14,507|507,14|14,520|520,14|14,529|529,14|14,548|548,14|14,572|572,14|14,604|604,14|14,612|612,14|14,626|626,14|14,630|630,14|14,667|667,14|14,676|676,14|14,696|696,14|14,714|714,14|14,752|752,14|14,756|756,14|14,763|763,14|14,827|827,14|15,33|33,15|15,71|71,15|15,77|77,15|15,82|82,15|15,99|99,15|15,100|100,15|15,113|113,15|15,134|134,15|15,142|142,15|15,146|146,15|15,157|157,15|15,158|158,15|15,159|159,15|15,164|164,15|15,205|205,15|15,213|213,15|15,228|228,15|15,232|232,15|15,238|238,15|15,243|243,15|15,271|271,15|15,274|274,15|15,281|281,15|15,309|309,15|15,351|351,15|15,358|358,15|15,360|360,15|15,394|394,15|15,453|453,15|15,521|521,15|15,528|528,15|15,587|587,15|15,617|617,15|15,643|643,15|15,644|644,15|15,665|665,15|15,666|666,15|15,672|672,15|15,728|728,15|15,766|766,15|15,771|771,15|15,782|782,15|15,783|783,15|15,812|812,15|15,818|818,15|16,34|34,16|16,42|42,16|16,53|53,16|16,110|110,16|16,155|155,16|16,187|187,16|16,198|198,16|16,203|203,16|16,216|216,16|16,234|234,16|16,239|239,16|16,246|246,16|16,253|253,16|16,257|257,16|16,259|259,16|16,262|262,16|16,269|269,16|16,288|288,16|16,290|290,16|16,310|310,16|16,312|312,16|16,317|317,16|16,331|331,16|16,343|343,16|16,367|367,16|16,372|372,16|16,392|392,16|16,412|412,16|16,420|420,16|16,449|449,16|16,454|454,16|16,459|459,16|16,468|468,16|16,474|474,16|16,493|493,16|16,510|510,16|16,516|516,16|16,570|570,16|16,577|577,16|16,585|585,16|16,605|605,16|16,652|652,16|16,662|662,16|16,777|777,16|16,821|821,16|17,35|35,17|17,38|38,17|17,132|132,17|17,147|147,17|17,150|150,17|17,160|160,17|17,180|180,17|17,183|183,17|17,215|215,17|17,304|304,17|17,314|314,17|17,318|318,17|17,334|334,17|17,341|341,17|17,353|353,17|17,354|354,17|17,377|377,17|17,414|414,17|17,415|415,17|17,430|430,17|17,472|472,17|17,499|499,17|17,524|524,17|17,538|538,17|17,539|539,17|17,545|545,17|17,583|583,17|17,621|621,17|17,625|625,17|17,628|628,17|17,634|634,17|17,646|646,17|17,651|651,17|17,677|677,17|17,690|690,17|17,692|692,17|17,708|708,17|17,715|715,17|17,739|739,17|17,746|746,17|17,760|760,17|17,787|787,17|17,796|796,17|17,803|803,17|17,808|808,17|18,36|36,18|18,79|79,18|18,88|88,18|18,106|106,18|18,109|109,18|18,115|115,18|18,118|118,18|18,153|153,18|18,163|163,18|18,214|214,18|18,225|225,18|18,240|240,18|18,245|245,18|18,280|280,18|18,285|285,18|18,303|303,18|18,335|335,18|18,340|340,18|18,363|363,18|18,419|419,18|18,429|429,18|18,444|444,18|18,464|464,18|18,466|466,18|18,475|475,18|18,552|552,18|18,559|559,18|18,586|586,18|18,608|608,18|18,614|614,18|18,616|616,18|18,653|653,18|18,657|657,18|18,668|668,18|18,678|678,18|18,686|686,18|18,687|687,18|18,701|701,18|18,725|725,18|18,733|733,18|18,745|745,18|18,765|765,18|18,778|778,18|18,809|809,18|18,824|824,18|];
nodes = [|1,9,0,0,0,0,1,1|2,9,0,0,0,0,1,2|3,9,0,0,0,0,1,3|4,9,0,0,0,0,1,4|5,9,0,0,0,0,1,5|6,9,0,0,0,0,1,6|7,9,0,0,0,0,1,7|8,9,0,0,0,0,1,8|9,9,0,0,0,0,1,9|10,9,0,0,0,0,1,10|11,9,0,0,0,0,1,11|12,9,0,0,0,0,1,12|13,9,0,0,0,0,1,13|14,9,0,0,0,0,1,14|15,9,0,0,0,0,1,15|16,9,0,0,0,0,1,16|17,9,0,0,0,0,1,17|18,9,0,0,0,0,1,18|19,10,0,0,0,0,1,1|20,10,0,0,0,0,1,2|21,10,0,0,0,0,1,3|22,10,0,0,0,0,1,4|23,10,0,0,0,0,1,5|24,10,0,0,0,0,1,6|25,10,0,0,0,0,1,7|26,10,0,0,0,0,1,8|27,10,0,0,0,0,1,9|28,10,0,0,0,0,1,10|29,10,0,0,0,0,1,11|30,10,0,0,0,0,1,12|31,10,0,0,0,0,1,13|32,10,0,0,0,0,1,14|33,10,0,0,0,0,1,15|34,10,0,0,0,0,1,16|35,10,0,0,0,0,1,17|36,10,0,0,0,0,1,18|37,5,0,0,0,0,1,3|38,1,0,0,0,0,1,17|39,1,0,0,0,0,1,3|40,5,0,0,0,0,1,11|41,4,0,0,0,0,1,6|42,4,0,0,0,0,1,16|43,1,0,0,0,0,1,10|44,1,0,0,0,0,1,7|45,4,0,0,0,0,1,3|46,5,0,0,0,0,1,7|47,1,0,0,0,0,1,6|48,4,0,0,0,0,1,7|49,3,0,0,0,0,1,13|50,5,0,0,0,0,1,6|51,2,0,0,0,0,1,9|52,2,0,0,0,0,1,8|53,2,0,0,0,0,1,16|54,5,0,0,0,0,1,8|55,3,0,0,0,0,1,14|56,4,0,0,0,0,1,5|57,5,0,0,0,0,1,13|58,1,0,0,0,0,1,13|59,3,0,0,0,0,1,8|60,2,0,0,0,0,1,4|61,1,0,0,0,0,1,13|62,5,0,0,0,0,1,12|63,4,0,0,0,0,1,1|64,1,0,0,0,0,1,10|65,3,0,0,0,0,1,7|66,4,0,0,0,0,1,3|67,4,0,0,0,0,1,14|68,4,0,0,0,0,1,1|69,5,0,0,0,0,1,2|70,4,0,0,0,0,1,8|71,4,0,0,0,0,1,15|72,4,0,0,0,0,1,14|73,4,0,0,0,0,1,14|74,2,0,0,0,0,1,14|75,4,0,0,0,0,1,7|76,2,0,0,0,0,1,8|77,1,0,0,0,0,1,15|78,1,0,0,0,0,1,4|79,2,0,0,0,0,1,18|80,5,0,0,0,0,1,14|81,2,0,0,0,0,1,6|82,5,0,0,0,0,1,15|83,5,0,0,0,0,1,4|84,1,0,0,0,0,1,7|85,5,0,0,0,0,1,4|86,3,0,0,0,0,1,1|87,2,0,0,0,0,1,8|88,4,0,0,0,0,1,18|89,4,0,0,0,0,1,6|90,5,0,0,0,0,1,9|91,4,0,0,0,0,1,10|92,1,0,0,0,0,1,10|93,1,0,0,0,0,1,9|94,3,0,0,0,0,1,8|95,3,0,0,0,0,1,13|96,4,0,0,0,0,1,2|97,2,0,0,0,0,1,3|98,2,0,0,0,0,1,1|99,2,0,0,0,0,1,15|100,4,0,0,0,0,1,15|101,4,0,0,0,0,1,7|102,4,0,0,0,0,1,8|103,2,0,0,0,0,1,6|104,3,0,0,0,0,1,9|105,5,0,0,0,0,1,6|106,3,0,0,0,0,1,18|107,3,0,0,0,0,1,14|108,3,0,0,0,0,1,2|109,5,0,0,0,0,1,18|110,4,0,0,0,0,1,16|111,1,0,0,0,0,1,3|112,5,0,0,0,0,1,5|113,1,0,0,0,0,1,15|114,3,0,0,0,0,1,14|115,4,0,0,0,0,1,18|116,5,0,0,0,0,1,11|117,5,0,0,0,0,1,11|118,4,0,0,0,0,1,18|119,2,0,0,0,0,1,8|120,5,0,0,0,0,1,4|121,2,0,0,0,0,1,8|122,4,0,0,0,0,1,5|123,4,0,0,0,0,1,5|124,4,0,0,0,0,1,10|125,1,0,0,0,0,1,11|126,5,0,0,0,0,1,3|127,5,0,0,0,0,1,14|128,1,0,0,0,0,1,13|129,1,0,0,0,0,1,5|130,5,0,0,0,0,1,14|131,2,0,0,0,0,1,9|132,4,0,0,0,0,1,17|133,3,0,0,0,0,1,2|134,1,0,0,0,0,1,15|135,3,0,0,0,0,1,10|136,5,0,0,0,0,1,3|137,5,0,0,0,0,1,5|138,5,0,0,0,0,1,6|139,2,0,0,0,0,1,14|140,4,0,0,0,0,1,14|141,3,0,0,0,0,1,7|142,4,0,0,0,0,1,15|143,4,0,0,0,0,1,6|144,5,0,0,0,0,1,12|145,5,0,0,0,0,1,2|146,1,0,0,0,0,1,15|147,1,0,0,0,0,1,17|148,3,0,0,0,0,1,13|149,3,0,0,0,0,1,2|150,1,0,0,0,0,1,17|151,3,0,0,0,0,1,4|152,3,0,0,0,0,1,9|153,3,0,0,0,0,1,18|154,1,0,0,0,0,1,1|155,1,0,0,0,0,1,16|156,3,0,0,0,0,1,3|157,1,0,0,0,0,1,15|158,5,0,0,0,0,1,15|159,5,0,0,0,0,1,15|160,2,0,0,0,0,1,17|161,2,0,0,0,0,1,9|162,5,0,0,0,0,1,2|163,1,0,0,0,0,1,18|164,5,0,0,0,0,1,15|165,1,0,0,0,0,1,2|166,3,0,0,0,0,1,7|167,5,0,0,0,0,1,10|168,3,0,0,0,0,1,1|169,3,0,0,0,0,1,10|170,2,0,0,0,0,1,5|171,4,0,0,0,0,1,7|172,4,0,0,0,0,1,8|173,1,0,0,0,0,1,1|174,5,0,0,0,0,1,1|175,1,0,0,0,0,1,2|176,4,0,0,0,0,1,7|177,5,0,0,0,0,1,4|178,1,0,0,0,0,1,4|179,2,0,0,0,0,1,7|180,2,0,0,0,0,1,17|181,5,0,0,0,0,1,7|182,1,0,0,0,0,1,14|183,4,0,0,0,0,1,17|184,1,0,0,0,0,1,2|185,1,0,0,0,0,1,13|186,2,0,0,0,0,1,13|187,4,0,0,0,0,1,16|188,5,0,0,0,0,1,4|189,4,0,0,0,0,1,9|190,5,0,0,0,0,1,3|191,4,0,0,0,0,1,2|192,2,0,0,0,0,1,7|193,2,0,0,0,0,1,7|194,1,0,0,0,0,1,12|195,1,0,0,0,0,1,1|196,4,0,0,0,0,1,11|197,2,0,0,0,0,1,12|198,3,0,0,0,0,1,16|199,2,0,0,0,0,1,4|200,3,0,0,0,0,1,8|201,5,0,0,0,0,1,12|202,5,0,0,0,0,1,13|203,3,0,0,0,0,1,16|204,3,0,0,0,0,1,4|205,5,0,0,0,0,1,15|206,5,0,0,0,0,1,11|207,4,0,0,0,0,1,12|208,5,0,0,0,0,1,14|209,5,0,0,0,0,1,1|210,2,0,0,0,0,1,5|211,5,0,0,0,0,1,12|212,5,0,0,0,0,1,2|213,3,0,0,0,0,1,15|214,4,0,0,0,0,1,18|215,3,0,0,0,0,1,17|216,2,0,0,0,0,1,16|217,3,0,0,0,0,1,14|218,3,0,0,0,0,1,10|219,4,0,0,0,0,1,7|220,5,0,0,0,0,1,2|221,1,0,0,0,0,1,4|222,5,0,0,0,0,1,13|223,1,0,0,0,0,1,2|224,1,0,0,0,0,1,7|225,3,0,0,0,0,1,18|226,1,0,0,0,0,1,5|227,3,0,0,0,0,1,13|228,2,0,0,0,0,1,15|229,4,0,0,0,0,1,10|230,2,0,0,0,0,1,4|231,2,0,0,0,0,1,4|232,2,0,0,0,0,1,15|233,1,0,0,0,0,1,8|234,4,0,0,0,0,1,16|235,4,0,0,0,0,1,4|236,4,0,0,0,0,1,1|237,1,0,0,0,0,1,13|238,5,0,0,0,0,1,15|239,2,0,0,0,0,1,16|240,5,0,0,0,0,1,18|241,3,0,0,0,0,1,12|242,3,0,0,0,0,1,7|243,4,0,0,0,0,1,15|244,4,0,0,0,0,1,11|245,2,0,0,0,0,1,18|246,4,0,0,0,0,1,16|247,2,0,0,0,0,1,1|248,2,0,0,0,0,1,13|249,1,0,0,0,0,1,11|250,1,0,0,0,0,1,2|251,4,0,0,0,0,1,6|252,4,0,0,0,0,1,9|253,3,0,0,0,0,1,16|254,3,0,0,0,0,1,9|255,5,0,0,0,0,1,7|256,4,0,0,0,0,1,8|257,3,0,0,0,0,1,16|258,2,0,0,0,0,1,12|259,4,0,0,0,0,1,16|260,5,0,0,0,0,1,13|261,4,0,0,0,0,1,9|262,1,0,0,0,0,1,16|263,3,0,0,0,0,1,11|264,2,0,0,0,0,1,10|265,2,0,0,0,0,1,6|266,3,0,0,0,0,1,8|267,5,0,0,0,0,1,6|268,4,0,0,0,0,1,6|269,4,0,0,0,0,1,16|270,2,0,0,0,0,1,11|271,5,0,0,0,0,1,15|272,5,0,0,0,0,1,5|273,4,0,0,0,0,1,14|274,2,0,0,0,0,1,15|275,1,0,0,0,0,1,9|276,3,0,0,0,0,1,3|277,5,0,0,0,0,1,3|278,3,0,0,0,0,1,1|279,4,0,0,0,0,1,14|280,1,0,0,0,0,1,18|281,2,0,0,0,0,1,15|282,2,0,0,0,0,1,14|283,5,0,0,0,0,1,5|284,3,0,0,0,0,1,5|285,1,0,0,0,0,1,18|286,5,0,0,0,0,1,7|287,1,0,0,0,0,1,2|288,3,0,0,0,0,1,16|289,3,0,0,0,0,1,3|290,5,0,0,0,0,1,16|291,4,0,0,0,0,1,5|292,2,0,0,0,0,1,7|293,4,0,0,0,0,1,5|294,1,0,0,0,0,1,2|295,5,0,0,0,0,1,7|296,4,0,0,0,0,1,8|297,4,0,0,0,0,1,6|298,3,0,0,0,0,1,6|299,5,0,0,0,0,1,1|300,1,0,0,0,0,1,2|301,4,0,0,0,0,1,14|302,3,0,0,0,0,1,5|303,3,0,0,0,0,1,18|304,5,0,0,0,0,1,17|305,5,0,0,0,0,1,1|306,4,0,0,0,0,1,10|307,1,0,0,0,0,1,2|308,5,0,0,0,0,1,1|309,5,0,0,0,0,1,15|310,3,0,0,0,0,1,16|311,3,0,0,0,0,1,11|312,2,0,0,0,0,1,16|313,1,0,0,0,0,1,3|314,5,0,0,0,0,1,17|315,4,0,0,0,0,1,4|316,5,0,0,0,0,1,9|317,4,0,0,0,0,1,16|318,5,0,0,0,0,1,17|319,1,0,0,0,0,1,6|320,4,0,0,0,0,1,1|321,1,0,0,0,0,1,10|322,1,0,0,0,0,1,1|323,2,0,0,0,0,1,11|324,2,0,0,0,0,1,12|325,3,0,0,0,0,1,11|326,2,0,0,0,0,1,2|327,5,0,0,0,0,1,8|328,5,0,0,0,0,1,12|329,3,0,0,0,0,1,4|330,1,0,0,0,0,1,12|331,3,0,0,0,0,1,16|332,2,0,0,0,0,1,13|333,4,0,0,0,0,1,2|334,4,0,0,0,0,1,17|335,2,0,0,0,0,1,18|336,4,0,0,0,0,1,10|337,5,0,0,0,0,1,12|338,1,0,0,0,0,1,10|339,4,0,0,0,0,1,3|340,3,0,0,0,0,1,18|341,1,0,0,0,0,1,17|342,4,0,0,0,0,1,10|343,1,0,0,0,0,1,16|344,2,0,0,0,0,1,7|345,3,0,0,0,0,1,3|346,1,0,0,0,0,1,10|347,3,0,0,0,0,1,4|348,3,0,0,0,0,1,9|349,3,0,0,0,0,1,1|350,4,0,0,0,0,1,11|351,4,0,0,0,0,1,15|352,4,0,0,0,0,1,2|353,2,0,0,0,0,1,17|354,5,0,0,0,0,1,17|355,2,0,0,0,0,1,10|356,3,0,0,0,0,1,12|357,4,0,0,0,0,1,5|358,4,0,0,0,0,1,15|359,1,0,0,0,0,1,5|360,1,0,0,0,0,1,15|361,3,0,0,0,0,1,4|362,1,0,0,0,0,1,8|363,4,0,0,0,0,1,18|364,5,0,0,0,0,1,4|365,5,0,0,0,0,1,1|366,3,0,0,0,0,1,11|367,2,0,0,0,0,1,16|368,2,0,0,0,0,1,7|369,5,0,0,0,0,1,4|370,1,0,0,0,0,1,10|371,2,0,0,0,0,1,4|372,1,0,0,0,0,1,16|373,2,0,0,0,0,1,7|374,2,0,0,0,0,1,13|375,1,0,0,0,0,1,13|376,1,0,0,0,0,1,7|377,2,0,0,0,0,1,17|378,2,0,0,0,0,1,6|379,3,0,0,0,0,1,5|380,5,0,0,0,0,1,1|381,4,0,0,0,0,1,13|382,5,0,0,0,0,1,4|383,3,0,0,0,0,1,6|384,2,0,0,0,0,1,6|385,5,0,0,0,0,1,2|386,1,0,0,0,0,1,6|387,5,0,0,0,0,1,12|388,2,0,0,0,0,1,5|389,1,0,0,0,0,1,13|390,5,0,0,0,0,1,1|391,4,0,0,0,0,1,9|392,3,0,0,0,0,1,16|393,1,0,0,0,0,1,9|394,1,0,0,0,0,1,15|395,3,0,0,0,0,1,13|396,5,0,0,0,0,1,3|397,2,0,0,0,0,1,11|398,5,0,0,0,0,1,14|399,3,0,0,0,0,1,14|400,3,0,0,0,0,1,3|401,5,0,0,0,0,1,11|402,5,0,0,0,0,1,9|403,2,0,0,0,0,1,6|404,3,0,0,0,0,1,1|405,2,0,0,0,0,1,9|406,1,0,0,0,0,1,9|407,1,0,0,0,0,1,2|408,4,0,0,0,0,1,6|409,5,0,0,0,0,1,14|410,2,0,0,0,0,1,11|411,4,0,0,0,0,1,10|412,4,0,0,0,0,1,16|413,3,0,0,0,0,1,2|414,4,0,0,0,0,1,17|415,3,0,0,0,0,1,17|416,4,0,0,0,0,1,11|417,1,0,0,0,0,1,11|418,1,0,0,0,0,1,7|419,5,0,0,0,0,1,18|420,3,0,0,0,0,1,16|421,1,0,0,0,0,1,11|422,3,0,0,0,0,1,6|423,1,0,0,0,0,1,7|424,4,0,0,0,0,1,14|425,4,0,0,0,0,1,11|426,2,0,0,0,0,1,14|427,4,0,0,0,0,1,11|428,3,0,0,0,0,1,9|429,4,0,0,0,0,1,18|430,2,0,0,0,0,1,17|431,2,0,0,0,0,1,7|432,3,0,0,0,0,1,4|433,4,0,0,0,0,1,12|434,2,0,0,0,0,1,14|435,2,0,0,0,0,1,3|436,2,0,0,0,0,1,13|437,1,0,0,0,0,1,8|438,1,0,0,0,0,1,8|439,3,0,0,0,0,1,3|440,3,0,0,0,0,1,13|441,5,0,0,0,0,1,4|442,2,0,0,0,0,1,5|443,4,0,0,0,0,1,11|444,3,0,0,0,0,1,18|445,1,0,0,0,0,1,5|446,5,0,0,0,0,1,13|447,1,0,0,0,0,1,12|448,5,0,0,0,0,1,3|449,5,0,0,0,0,1,16|450,4,0,0,0,0,1,11|451,1,0,0,0,0,1,5|452,4,0,0,0,0,1,3|453,1,0,0,0,0,1,15|454,2,0,0,0,0,1,16|455,2,0,0,0,0,1,10|456,1,0,0,0,0,1,4|457,5,0,0,0,0,1,2|458,1,0,0,0,0,1,9|459,5,0,0,0,0,1,16|460,3,0,0,0,0,1,6|461,4,0,0,0,0,1,14|462,4,0,0,0,0,1,10|463,1,0,0,0,0,1,8|464,4,0,0,0,0,1,18|465,4,0,0,0,0,1,7|466,4,0,0,0,0,1,18|467,4,0,0,0,0,1,2|468,2,0,0,0,0,1,16|469,4,0,0,0,0,1,11|470,5,0,0,0,0,1,9|471,4,0,0,0,0,1,6|472,3,0,0,0,0,1,17|473,2,0,0,0,0,1,10|474,3,0,0,0,0,1,16|475,3,0,0,0,0,1,18|476,2,0,0,0,0,1,4|477,4,0,0,0,0,1,11|478,1,0,0,0,0,1,12|479,2,0,0,0,0,1,10|480,1,0,0,0,0,1,8|481,4,0,0,0,0,1,7|482,3,0,0,0,0,1,3|483,2,0,0,0,0,1,1|484,2,0,0,0,0,1,10|485,5,0,0,0,0,1,9|486,2,0,0,0,0,1,7|487,5,0,0,0,0,1,13|488,1,0,0,0,0,1,11|489,5,0,0,0,0,1,13|490,2,0,0,0,0,1,5|491,5,0,0,0,0,1,12|492,4,0,0,0,0,1,9|493,1,0,0,0,0,1,16|494,2,0,0,0,0,1,12|495,5,0,0,0,0,1,3|496,5,0,0,0,0,1,5|497,1,0,0,0,0,1,8|498,1,0,0,0,0,1,6|499,2,0,0,0,0,1,17|500,4,0,0,0,0,1,10|501,2,0,0,0,0,1,5|502,4,0,0,0,0,1,12|503,2,0,0,0,0,1,10|504,2,0,0,0,0,1,9|505,4,0,0,0,0,1,14|506,3,0,0,0,0,1,4|507,1,0,0,0,0,1,14|508,3,0,0,0,0,1,1|509,1,0,0,0,0,1,12|510,1,0,0,0,0,1,16|511,2,0,0,0,0,1,12|512,4,0,0,0,0,1,3|513,4,0,0,0,0,1,9|514,5,0,0,0,0,1,1|515,3,0,0,0,0,1,1|516,4,0,0,0,0,1,16|517,5,0,0,0,0,1,1|518,1,0,0,0,0,1,1|519,4,0,0,0,0,1,3|520,1,0,0,0,0,1,14|521,3,0,0,0,0,1,15|522,1,0,0,0,0,1,3|523,5,0,0,0,0,1,9|524,3,0,0,0,0,1,17|525,1,0,0,0,0,1,4|526,1,0,0,0,0,1,12|527,2,0,0,0,0,1,4|528,5,0,0,0,0,1,15|529,5,0,0,0,0,1,14|530,3,0,0,0,0,1,6|531,2,0,0,0,0,1,4|532,2,0,0,0,0,1,7|533,5,0,0,0,0,1,11|534,4,0,0,0,0,1,1|535,3,0,0,0,0,1,1|536,3,0,0,0,0,1,12|537,4,0,0,0,0,1,12|538,2,0,0,0,0,1,17|539,3,0,0,0,0,1,17|540,5,0,0,0,0,1,1|541,5,0,0,0,0,1,2|542,3,0,0,0,0,1,11|543,2,0,0,0,0,1,7|544,3,0,0,0,0,1,13|545,5,0,0,0,0,1,17|546,4,0,0,0,0,1,8|547,3,0,0,0,0,1,10|548,4,0,0,0,0,1,14|549,3,0,0,0,0,1,12|550,5,0,0,0,0,1,6|551,1,0,0,0,0,1,5|552,1,0,0,0,0,1,18|553,3,0,0,0,0,1,8|554,5,0,0,0,0,1,9|555,3,0,0,0,0,1,6|556,1,0,0,0,0,1,7|557,1,0,0,0,0,1,5|558,3,0,0,0,0,1,5|559,3,0,0,0,0,1,18|560,2,0,0,0,0,1,10|561,3,0,0,0,0,1,11|562,2,0,0,0,0,1,1|563,2,0,0,0,0,1,13|564,3,0,0,0,0,1,12|565,2,0,0,0,0,1,6|566,4,0,0,0,0,1,2|567,2,0,0,0,0,1,12|568,2,0,0,0,0,1,9|569,2,0,0,0,0,1,11|570,4,0,0,0,0,1,16|571,3,0,0,0,0,1,1|572,4,0,0,0,0,1,14|573,4,0,0,0,0,1,2|574,5,0,0,0,0,1,9|575,3,0,0,0,0,1,2|576,5,0,0,0,0,1,1|577,2,0,0,0,0,1,16|578,1,0,0,0,0,1,11|579,1,0,0,0,0,1,9|580,2,0,0,0,0,1,11|581,3,0,0,0,0,1,12|582,5,0,0,0,0,1,13|583,2,0,0,0,0,1,17|584,5,0,0,0,0,1,13|585,3,0,0,0,0,1,16|586,4,0,0,0,0,1,18|587,2,0,0,0,0,1,15|588,1,0,0,0,0,1,10|589,4,0,0,0,0,1,7|590,4,0,0,0,0,1,5|591,4,0,0,0,0,1,2|592,2,0,0,0,0,1,2|593,2,0,0,0,0,1,10|594,2,0,0,0,0,1,8|595,2,0,0,0,0,1,9|596,5,0,0,0,0,1,3|597,2,0,0,0,0,1,4|598,5,0,0,0,0,1,13|599,5,0,0,0,0,1,13|600,1,0,0,0,0,1,6|601,2,0,0,0,0,1,9|602,3,0,0,0,0,1,3|603,1,0,0,0,0,1,9|604,4,0,0,0,0,1,14|605,5,0,0,0,0,1,16|606,1,0,0,0,0,1,1|607,5,0,0,0,0,1,11|608,2,0,0,0,0,1,18|609,5,0,0,0,0,1,9|610,2,0,0,0,0,1,13|611,4,0,0,0,0,1,4|612,4,0,0,0,0,1,14|613,5,0,0,0,0,1,5|614,3,0,0,0,0,1,18|615,4,0,0,0,0,1,10|616,4,0,0,0,0,1,18|617,5,0,0,0,0,1,15|618,2,0,0,0,0,1,3|619,5,0,0,0,0,1,2|620,5,0,0,0,0,1,2|621,1,0,0,0,0,1,17|622,2,0,0,0,0,1,8|623,3,0,0,0,0,1,1|624,5,0,0,0,0,1,6|625,4,0,0,0,0,1,17|626,2,0,0,0,0,1,14|627,3,0,0,0,0,1,7|628,5,0,0,0,0,1,17|629,5,0,0,0,0,1,5|630,5,0,0,0,0,1,14|631,1,0,0,0,0,1,12|632,5,0,0,0,0,1,12|633,1,0,0,0,0,1,4|634,1,0,0,0,0,1,17|635,4,0,0,0,0,1,13|636,5,0,0,0,0,1,10|637,1,0,0,0,0,1,3|638,2,0,0,0,0,1,10|639,2,0,0,0,0,1,5|640,5,0,0,0,0,1,4|641,4,0,0,0,0,1,3|642,4,0,0,0,0,1,5|643,2,0,0,0,0,1,15|644,2,0,0,0,0,1,15|645,3,0,0,0,0,1,1|646,2,0,0,0,0,1,17|647,1,0,0,0,0,1,10|648,5,0,0,0,0,1,11|649,2,0,0,0,0,1,5|650,4,0,0,0,0,1,2|651,3,0,0,0,0,1,17|652,1,0,0,0,0,1,16|653,2,0,0,0,0,1,18|654,2,0,0,0,0,1,12|655,3,0,0,0,0,1,9|656,2,0,0,0,0,1,2|657,4,0,0,0,0,1,18|658,4,0,0,0,0,1,3|659,2,0,0,0,0,1,8|660,5,0,0,0,0,1,7|661,1,0,0,0,0,1,11|662,3,0,0,0,0,1,16|663,3,0,0,0,0,1,1|664,5,0,0,0,0,1,9|665,3,0,0,0,0,1,15|666,4,0,0,0,0,1,15|667,2,0,0,0,0,1,14|668,2,0,0,0,0,1,18|669,1,0,0,0,0,1,6|670,5,0,0,0,0,1,13|671,5,0,0,0,0,1,6|672,2,0,0,0,0,1,15|673,5,0,0,0,0,1,12|674,4,0,0,0,0,1,2|675,1,0,0,0,0,1,3|676,1,0,0,0,0,1,14|677,4,0,0,0,0,1,17|678,3,0,0,0,0,1,18|679,2,0,0,0,0,1,12|680,5,0,0,0,0,1,8|681,1,0,0,0,0,1,2|682,4,0,0,0,0,1,3|683,1,0,0,0,0,1,4|684,3,0,0,0,0,1,4|685,3,0,0,0,0,1,11|686,5,0,0,0,0,1,18|687,4,0,0,0,0,1,18|688,2,0,0,0,0,1,2|689,2,0,0,0,0,1,10|690,3,0,0,0,0,1,17|691,4,0,0,0,0,1,6|692,1,0,0,0,0,1,17|693,3,0,0,0,0,1,5|694,5,0,0,0,0,1,2|695,5,0,0,0,0,1,11|696,3,0,0,0,0,1,14|697,4,0,0,0,0,1,6|698,5,0,0,0,0,1,3|699,1,0,0,0,0,1,1|700,4,0,0,0,0,1,9|701,2,0,0,0,0,1,18|702,1,0,0,0,0,1,13|703,4,0,0,0,0,1,2|704,4,0,0,0,0,1,9|705,2,0,0,0,0,1,9|706,5,0,0,0,0,1,10|707,3,0,0,0,0,1,5|708,5,0,0,0,0,1,17|709,1,0,0,0,0,1,12|710,1,0,0,0,0,1,5|711,2,0,0,0,0,1,8|712,1,0,0,0,0,1,7|713,2,0,0,0,0,1,3|714,1,0,0,0,0,1,14|715,4,0,0,0,0,1,17|716,2,0,0,0,0,1,8|717,2,0,0,0,0,1,9|718,5,0,0,0,0,1,3|719,3,0,0,0,0,1,12|720,3,0,0,0,0,1,7|721,3,0,0,0,0,1,13|722,3,0,0,0,0,1,13|723,4,0,0,0,0,1,6|724,4,0,0,0,0,1,8|725,3,0,0,0,0,1,18|726,4,0,0,0,0,1,5|727,2,0,0,0,0,1,10|728,2,0,0,0,0,1,15|729,4,0,0,0,0,1,4|730,4,0,0,0,0,1,6|731,1,0,0,0,0,1,13|732,5,0,0,0,0,1,9|733,2,0,0,0,0,1,18|734,5,0,0,0,0,1,4|735,5,0,0,0,0,1,3|736,1,0,0,0,0,1,5|737,2,0,0,0,0,1,8|738,3,0,0,0,0,1,8|739,1,0,0,0,0,1,17|740,3,0,0,0,0,1,12|741,2,0,0,0,0,1,8|742,1,0,0,0,0,1,7|743,5,0,0,0,0,1,1|744,2,0,0,0,0,1,5|745,4,0,0,0,0,1,18|746,2,0,0,0,0,1,17|747,2,0,0,0,0,1,11|748,5,0,0,0,0,1,7|749,1,0,0,0,0,1,10|750,5,0,0,0,0,1,3|751,5,0,0,0,0,1,8|752,5,0,0,0,0,1,14|753,5,0,0,0,0,1,3|754,4,0,0,0,0,1,3|755,1,0,0,0,0,1,8|756,4,0,0,0,0,1,14|757,4,0,0,0,0,1,8|758,3,0,0,0,0,1,4|759,1,0,0,0,0,1,8|760,4,0,0,0,0,1,17|761,5,0,0,0,0,1,12|762,4,0,0,0,0,1,9|763,3,0,0,0,0,1,14|764,2,0,0,0,0,1,1|765,3,0,0,0,0,1,18|766,3,0,0,0,0,1,15|767,3,0,0,0,0,1,7|768,3,0,0,0,0,1,3|769,2,0,0,0,0,1,1|770,1,0,0,0,0,1,5|771,1,0,0,0,0,1,15|772,3,0,0,0,0,1,12|773,3,0,0,0,0,1,13|774,1,0,0,0,0,1,11|775,3,0,0,0,0,1,6|776,5,0,0,0,0,1,9|777,3,0,0,0,0,1,16|778,5,0,0,0,0,1,18|779,2,0,0,0,0,1,13|780,2,0,0,0,0,1,2|781,2,0,0,0,0,1,1|782,3,0,0,0,0,1,15|783,5,0,0,0,0,1,15|784,4,0,0,0,0,1,13|785,1,0,0,0,0,1,8|786,1,0,0,0,0,1,8|787,5,0,0,0,0,1,17|788,5,0,0,0,0,1,12|789,5,0,0,0,0,1,10|790,4,0,0,0,0,1,5|791,4,0,0,0,0,1,6|792,1,0,0,0,0,1,12|793,5,0,0,0,0,1,6|794,2,0,0,0,0,1,11|795,5,0,0,0,0,1,5|796,1,0,0,0,0,1,17|797,1,0,0,0,0,1,7|798,1,0,0,0,0,1,12|799,2,0,0,0,0,1,13|800,3,0,0,0,0,1,13|801,1,0,0,0,0,1,4|802,4,0,0,0,0,1,10|803,5,0,0,0,0,1,17|804,2,0,0,0,0,1,10|805,5,0,0,0,0,1,6|806,2,0,0,0,0,1,6|807,2,0,0,0,0,1,11|808,5,0,0,0,0,1,17|809,5,0,0,0,0,1,18|810,1,0,0,0,0,1,8|811,3,0,0,0,0,1,4|812,5,0,0,0,0,1,15|813,4,0,0,0,0,1,2|814,3,0,0,0,0,1,3|815,3,0,0,0,0,1,6|816,5,0,0,0,0,1,8|817,3,0,0,0,0,1,11|818,2,0,0,0,0,1,15|819,3,0,0,0,0,1,10|820,5,0,0,0,0,1,10|821,4,0,0,0,0,1,16|822,2,0,0,0,0,1,4|823,4,0,0,0,0,1,8|824,4,0,0,0,0,1,18|825,2,0,0,0,0,1,5|826,3,0,0,0,0,1,12|827,5,0,0,0,0,1,14|828,5,0,0,0,0,1,4|];
